instances/knapsack/discrete/knapsack_70_9.lp
\ Model knapsack_70_9
\ LP format - for model browsing. Use MPS format to capture full model detail.
\ Signature: 0x9699bb600e1f4c54
Minimize
  - 7 x[0] - 8 x[1] - 5 x[2] - 45 x[3] - 87 x[4] - 38 x[5] - 71 x[6]
   - 77 x[7] - 64 x[8] - 28 x[9] - 44 x[10] - 16 x[11] - 16 x[12]
   - 43 x[13] - 40 x[14] - 57 x[15] - 3 x[16] - 55 x[17] - 20 x[18]
   - 67 x[19] - 39 x[20] - 72 x[21] - 41 x[22] - 17 x[23] - 14 x[24]
   - 32 x[25] - 37 x[26] - 81 x[27] - 99 x[28] - 10 x[29] - 10 x[30]
   - 81 x[31] - 9 x[32] - 92 x[33] - 69 x[34] - 10 x[35] - 2 x[36]
   - 100 x[37] - 36 x[38] - 49 x[39] - 17 x[40] - 31 x[41] - 75 x[42]
   - 32 x[43] - 56 x[44] - 56 x[45] - 6 x[46] - 86 x[47] - 2 x[48]
   - 47 x[49] - 64 x[50] - 28 x[51] - 48 x[52] - 78 x[53] - 73 x[54]
   - 67 x[55] - 44 x[56] - 25 x[57] - 41 x[58] - 16 x[59] - 53 x[60]
   - 83 x[61] - 59 x[62] - 51 x[63] - 84 x[64] - 90 x[65] - 62 x[66]
   - 19 x[67] - 26 x[68] - 51 x[69]
Subject To
 primal_upper: 89 x[0] + 57 x[1] + 39 x[2] + 96 x[3] + 17 x[4] + 11 x[5]
   + 86 x[6] + 85 x[7] + 26 x[8] + 35 x[9] + 33 x[10] + 24 x[11] + 73 x[12]
   + 77 x[13] + 22 x[14] + 94 x[15] + 18 x[16] + 45 x[17] + 34 x[18]
   + 67 x[19] + 78 x[20] + 9 x[21] + 17 x[22] + 80 x[23] + 38 x[24]
   + 93 x[25] + 43 x[26] + 5 x[27] + 23 x[28] + 60 x[29] + 19 x[30]
   + 77 x[31] + 9 x[32] + 54 x[33] + 41 x[34] + 34 x[35] + 13 x[36]
   + 54 x[37] + 29 x[38] + 96 x[39] + 8 x[40] + 19 x[41] + 79 x[42]
   + 67 x[43] + 80 x[44] + 44 x[45] + 83 x[46] + 67 x[47] + 72 x[48]
   + 49 x[49] + 24 x[50] + 89 x[51] + 62 x[52] + 89 x[53] + 50 x[54]
   + 85 x[55] + 98 x[56] + 92 x[57] + 85 x[58] + 31 x[59] + 42 x[60]
   + 88 x[61] + 57 x[62] + 68 x[63] + 5 x[64] + 45 x[65] + 6 x[66]
   + 36 x[67] + 69 x[68] + 19 x[69] + 8.9 r[0] + 5.7 r[1] + 3.9 r[2]
   + 9.6 r[3] + 1.7 r[4] + 1.1 r[5] + 8.6 r[6] + 8.5 r[7] + 2.6 r[8]
   + 3.5 r[9] + 3.3 r[10] + 2.4 r[11] + 7.3 r[12] + 7.7 r[13] + 2.2 r[14]
   + 9.4 r[15] + 1.8 r[16] + 4.5 r[17] + 3.4 r[18] + 6.7 r[19] + 7.8 r[20]
   + 0.9 r[21] + 1.7 r[22] + 8 r[23] + 3.8 r[24] + 9.3 r[25] + 4.3 r[26]
   + 0.5 r[27] + 2.3 r[28] + 6 r[29] + 1.9 r[30] + 7.7 r[31] + 0.9 r[32]
   + 5.4 r[33] + 4.1 r[34] + 3.4 r[35] + 1.3 r[36] + 5.4 r[37] + 2.9 r[38]
   + 9.6 r[39] + 0.8 r[40] + 1.9 r[41] + 7.9 r[42] + 6.7 r[43] + 8 r[44]
   + 4.4 r[45] + 8.3 r[46] + 6.7 r[47] + 7.2 r[48] + 4.9 r[49] + 2.4 r[50]
   + 8.9 r[51] + 6.2 r[52] + 8.9 r[53] + 5 r[54] + 8.5 r[55] + 9.8 r[56]
   + 9.2 r[57] + 8.5 r[58] + 3.1 r[59] + 4.2 r[60] + 8.8 r[61] + 5.7 r[62]
   + 6.8 r[63] + 0.5 r[64] + 4.5 r[65] + 0.6 r[66] + 3.6 r[67] + 6.9 r[68]
   + 1.9 r[69] <= 343
 primal_lower: 3.631732811409397 x[0] + 4.777603406038563 x[1]
   + 2.601667458851721 x[2] + 3.587747403249452 x[3]
   + 2.622684322050522 x[4] + 1.297777141288284 x[5]
   + 3.344284495726055 x[6] + 0.4990936002439904 x[7]
   + 1.967861610950868 x[8] + 1.662789953866556 x[9]
   + 5.224948613721671 x[10] + 1.075995960716907 x[11]
   + 1.686058312396279 x[12] + 3.555419166858608 x[13]
   + 2.830054782150046 x[14] + 4.602286848276392 x[15]
   + 0.6680855542021149 x[16] + 4.442401812358529 x[17]
   + 4.787267588563235 x[18] + 2.943994552534826 x[19]
   + 3.91312136988188 x[20] + 3.363606068778902 x[21]
   + 5.032844716890698 x[22] + 4.555465239819555 x[23]
   + 2.385837710214609 x[24] + 4.054468869597281 x[25]
   + 5.158096460703398 x[26] + 1.139626924225251 x[27]
   + 3.500401190638257 x[28] + 2.009778789159319 x[29]
   + 0.7533331936290485 x[30] + 3.757908186225956 x[31]
   + 4.903302181294436 x[32] + 5.390221479639424 x[33]
   + 4.727220443757048 x[34] + 1.508968201245803 x[35]
   + 2.258199719093848 x[36] + 1.090418285227593 x[37]
   + 0.3139171410335316 x[38] + 2.847916940797735 x[39]
   + 4.37664985976547 x[40] + 2.454101993348893 x[41]
   + 1.610972374074078 x[42] + 5.035481949595031 x[43]
   + 3.033780636576846 x[44] + 1.64535810122031 x[45]
   + 3.580318590713232 x[46] + 1.24212550173733 x[47]
   + 1.898097960092403 x[48] + 4.831082783959318 x[49]
   + 4.722042298539368 x[50] + 5.045809420599978 x[51]
   + 2.065000355356556 x[52] + 5.358351746634806 x[53]
   + 3.94337043787763 x[54] + 2.399133222866046 x[55]
   + 3.407323052920483 x[56] + 0.0386212709452017 x[57]
   + 4.193259907128967 x[58] + 1.889889495786993 x[59]
   + 3.993717597369745 x[60] + 1.826743539859208 x[61]
   + 3.920676385178482 x[62] + 2.581560386953323 x[63]
   + 4.219416450467651 x[64] + 4.340433693726057 x[65]
   + 3.993079319808102 x[66] + 3.276773215053554 x[67]
   + 4.656902697509771 x[68] + 1.481082690062759 x[69] + 46 u[0] + 71 u[1]
   + 57 u[2] + 42 u[3] + 91 u[4] + 20 u[5] + 36 u[6] + 14 u[7] + 52 u[8]
   + 77 u[9] + 82 u[10] + 98 u[11] + 71 u[12] + 75 u[13] + 31 u[14]
   + 31 u[15] + 76 u[16] + 71 u[17] + 76 u[18] + 81 u[19] + 40 u[20]
   + 86 u[21] + 99 u[22] + 89 u[23] + 43 u[24] + 59 u[25] + 89 u[26]
   + 46 u[27] + 76 u[28] + 50 u[29] + 20 u[30] + 54 u[31] + 22 u[32]
   + 32 u[33] + 31 u[34] + 100 u[35] + 63 u[36] + 11 u[37] + 47 u[38]
   + 49 u[39] + 22 u[40] + 48 u[41] + 61 u[42] + 52 u[43] + 98 u[44]
   + 97 u[45] + 8 u[46] + 52 u[47] + 74 u[48] + 39 u[49] + 65 u[50]
   + 71 u[51] + 20 u[52] + 55 u[53] + 99 u[54] + 86 u[55] + 96 u[56]
   + 45 u[57] + 35 u[58] + 89 u[59] + 43 u[60] + u[61] + 90 u[62] + u[63]
   + 70 u[64] + 75 u[65] + 19 u[66] + 25 u[67] + 59 u[68] + 88 u[69]
   <= 11291
 mccormick1[0]: - u[0] + r[0] <= 0
 mccormick1[1]: - u[1] + r[1] <= 0
 mccormick1[2]: - u[2] + r[2] <= 0
 mccormick1[3]: - u[3] + r[3] <= 0
 mccormick1[4]: - u[4] + r[4] <= 0
 mccormick1[5]: - u[5] + r[5] <= 0
 mccormick1[6]: - u[6] + r[6] <= 0
 mccormick1[7]: - u[7] + r[7] <= 0
 mccormick1[8]: - u[8] + r[8] <= 0
 mccormick1[9]: - u[9] + r[9] <= 0
 mccormick1[10]: - u[10] + r[10] <= 0
 mccormick1[11]: - u[11] + r[11] <= 0
 mccormick1[12]: - u[12] + r[12] <= 0
 mccormick1[13]: - u[13] + r[13] <= 0
 mccormick1[14]: - u[14] + r[14] <= 0
 mccormick1[15]: - u[15] + r[15] <= 0
 mccormick1[16]: - u[16] + r[16] <= 0
 mccormick1[17]: - u[17] + r[17] <= 0
 mccormick1[18]: - u[18] + r[18] <= 0
 mccormick1[19]: - u[19] + r[19] <= 0
 mccormick1[20]: - u[20] + r[20] <= 0
 mccormick1[21]: - u[21] + r[21] <= 0
 mccormick1[22]: - u[22] + r[22] <= 0
 mccormick1[23]: - u[23] + r[23] <= 0
 mccormick1[24]: - u[24] + r[24] <= 0
 mccormick1[25]: - u[25] + r[25] <= 0
 mccormick1[26]: - u[26] + r[26] <= 0
 mccormick1[27]: - u[27] + r[27] <= 0
 mccormick1[28]: - u[28] + r[28] <= 0
 mccormick1[29]: - u[29] + r[29] <= 0
 mccormick1[30]: - u[30] + r[30] <= 0
 mccormick1[31]: - u[31] + r[31] <= 0
 mccormick1[32]: - u[32] + r[32] <= 0
 mccormick1[33]: - u[33] + r[33] <= 0
 mccormick1[34]: - u[34] + r[34] <= 0
 mccormick1[35]: - u[35] + r[35] <= 0
 mccormick1[36]: - u[36] + r[36] <= 0
 mccormick1[37]: - u[37] + r[37] <= 0
 mccormick1[38]: - u[38] + r[38] <= 0
 mccormick1[39]: - u[39] + r[39] <= 0
 mccormick1[40]: - u[40] + r[40] <= 0
 mccormick1[41]: - u[41] + r[41] <= 0
 mccormick1[42]: - u[42] + r[42] <= 0
 mccormick1[43]: - u[43] + r[43] <= 0
 mccormick1[44]: - u[44] + r[44] <= 0
 mccormick1[45]: - u[45] + r[45] <= 0
 mccormick1[46]: - u[46] + r[46] <= 0
 mccormick1[47]: - u[47] + r[47] <= 0
 mccormick1[48]: - u[48] + r[48] <= 0
 mccormick1[49]: - u[49] + r[49] <= 0
 mccormick1[50]: - u[50] + r[50] <= 0
 mccormick1[51]: - u[51] + r[51] <= 0
 mccormick1[52]: - u[52] + r[52] <= 0
 mccormick1[53]: - u[53] + r[53] <= 0
 mccormick1[54]: - u[54] + r[54] <= 0
 mccormick1[55]: - u[55] + r[55] <= 0
 mccormick1[56]: - u[56] + r[56] <= 0
 mccormick1[57]: - u[57] + r[57] <= 0
 mccormick1[58]: - u[58] + r[58] <= 0
 mccormick1[59]: - u[59] + r[59] <= 0
 mccormick1[60]: - u[60] + r[60] <= 0
 mccormick1[61]: - u[61] + r[61] <= 0
 mccormick1[62]: - u[62] + r[62] <= 0
 mccormick1[63]: - u[63] + r[63] <= 0
 mccormick1[64]: - u[64] + r[64] <= 0
 mccormick1[65]: - u[65] + r[65] <= 0
 mccormick1[66]: - u[66] + r[66] <= 0
 mccormick1[67]: - u[67] + r[67] <= 0
 mccormick1[68]: - u[68] + r[68] <= 0
 mccormick1[69]: - u[69] + r[69] <= 0
 mccormick2[0]: - x[0] + r[0] <= 0
 mccormick2[1]: - x[1] + r[1] <= 0
 mccormick2[2]: - x[2] + r[2] <= 0
 mccormick2[3]: - x[3] + r[3] <= 0
 mccormick2[4]: - x[4] + r[4] <= 0
 mccormick2[5]: - x[5] + r[5] <= 0
 mccormick2[6]: - x[6] + r[6] <= 0
 mccormick2[7]: - x[7] + r[7] <= 0
 mccormick2[8]: - x[8] + r[8] <= 0
 mccormick2[9]: - x[9] + r[9] <= 0
 mccormick2[10]: - x[10] + r[10] <= 0
 mccormick2[11]: - x[11] + r[11] <= 0
 mccormick2[12]: - x[12] + r[12] <= 0
 mccormick2[13]: - x[13] + r[13] <= 0
 mccormick2[14]: - x[14] + r[14] <= 0
 mccormick2[15]: - x[15] + r[15] <= 0
 mccormick2[16]: - x[16] + r[16] <= 0
 mccormick2[17]: - x[17] + r[17] <= 0
 mccormick2[18]: - x[18] + r[18] <= 0
 mccormick2[19]: - x[19] + r[19] <= 0
 mccormick2[20]: - x[20] + r[20] <= 0
 mccormick2[21]: - x[21] + r[21] <= 0
 mccormick2[22]: - x[22] + r[22] <= 0
 mccormick2[23]: - x[23] + r[23] <= 0
 mccormick2[24]: - x[24] + r[24] <= 0
 mccormick2[25]: - x[25] + r[25] <= 0
 mccormick2[26]: - x[26] + r[26] <= 0
 mccormick2[27]: - x[27] + r[27] <= 0
 mccormick2[28]: - x[28] + r[28] <= 0
 mccormick2[29]: - x[29] + r[29] <= 0
 mccormick2[30]: - x[30] + r[30] <= 0
 mccormick2[31]: - x[31] + r[31] <= 0
 mccormick2[32]: - x[32] + r[32] <= 0
 mccormick2[33]: - x[33] + r[33] <= 0
 mccormick2[34]: - x[34] + r[34] <= 0
 mccormick2[35]: - x[35] + r[35] <= 0
 mccormick2[36]: - x[36] + r[36] <= 0
 mccormick2[37]: - x[37] + r[37] <= 0
 mccormick2[38]: - x[38] + r[38] <= 0
 mccormick2[39]: - x[39] + r[39] <= 0
 mccormick2[40]: - x[40] + r[40] <= 0
 mccormick2[41]: - x[41] + r[41] <= 0
 mccormick2[42]: - x[42] + r[42] <= 0
 mccormick2[43]: - x[43] + r[43] <= 0
 mccormick2[44]: - x[44] + r[44] <= 0
 mccormick2[45]: - x[45] + r[45] <= 0
 mccormick2[46]: - x[46] + r[46] <= 0
 mccormick2[47]: - x[47] + r[47] <= 0
 mccormick2[48]: - x[48] + r[48] <= 0
 mccormick2[49]: - x[49] + r[49] <= 0
 mccormick2[50]: - x[50] + r[50] <= 0
 mccormick2[51]: - x[51] + r[51] <= 0
 mccormick2[52]: - x[52] + r[52] <= 0
 mccormick2[53]: - x[53] + r[53] <= 0
 mccormick2[54]: - x[54] + r[54] <= 0
 mccormick2[55]: - x[55] + r[55] <= 0
 mccormick2[56]: - x[56] + r[56] <= 0
 mccormick2[57]: - x[57] + r[57] <= 0
 mccormick2[58]: - x[58] + r[58] <= 0
 mccormick2[59]: - x[59] + r[59] <= 0
 mccormick2[60]: - x[60] + r[60] <= 0
 mccormick2[61]: - x[61] + r[61] <= 0
 mccormick2[62]: - x[62] + r[62] <= 0
 mccormick2[63]: - x[63] + r[63] <= 0
 mccormick2[64]: - x[64] + r[64] <= 0
 mccormick2[65]: - x[65] + r[65] <= 0
 mccormick2[66]: - x[66] + r[66] <= 0
 mccormick2[67]: - x[67] + r[67] <= 0
 mccormick2[68]: - x[68] + r[68] <= 0
 mccormick2[69]: - x[69] + r[69] <= 0
 mccormick3[0]: x[0] + u[0] - r[0] <= 1
 mccormick3[1]: x[1] + u[1] - r[1] <= 1
 mccormick3[2]: x[2] + u[2] - r[2] <= 1
 mccormick3[3]: x[3] + u[3] - r[3] <= 1
 mccormick3[4]: x[4] + u[4] - r[4] <= 1
 mccormick3[5]: x[5] + u[5] - r[5] <= 1
 mccormick3[6]: x[6] + u[6] - r[6] <= 1
 mccormick3[7]: x[7] + u[7] - r[7] <= 1
 mccormick3[8]: x[8] + u[8] - r[8] <= 1
 mccormick3[9]: x[9] + u[9] - r[9] <= 1
 mccormick3[10]: x[10] + u[10] - r[10] <= 1
 mccormick3[11]: x[11] + u[11] - r[11] <= 1
 mccormick3[12]: x[12] + u[12] - r[12] <= 1
 mccormick3[13]: x[13] + u[13] - r[13] <= 1
 mccormick3[14]: x[14] + u[14] - r[14] <= 1
 mccormick3[15]: x[15] + u[15] - r[15] <= 1
 mccormick3[16]: x[16] + u[16] - r[16] <= 1
 mccormick3[17]: x[17] + u[17] - r[17] <= 1
 mccormick3[18]: x[18] + u[18] - r[18] <= 1
 mccormick3[19]: x[19] + u[19] - r[19] <= 1
 mccormick3[20]: x[20] + u[20] - r[20] <= 1
 mccormick3[21]: x[21] + u[21] - r[21] <= 1
 mccormick3[22]: x[22] + u[22] - r[22] <= 1
 mccormick3[23]: x[23] + u[23] - r[23] <= 1
 mccormick3[24]: x[24] + u[24] - r[24] <= 1
 mccormick3[25]: x[25] + u[25] - r[25] <= 1
 mccormick3[26]: x[26] + u[26] - r[26] <= 1
 mccormick3[27]: x[27] + u[27] - r[27] <= 1
 mccormick3[28]: x[28] + u[28] - r[28] <= 1
 mccormick3[29]: x[29] + u[29] - r[29] <= 1
 mccormick3[30]: x[30] + u[30] - r[30] <= 1
 mccormick3[31]: x[31] + u[31] - r[31] <= 1
 mccormick3[32]: x[32] + u[32] - r[32] <= 1
 mccormick3[33]: x[33] + u[33] - r[33] <= 1
 mccormick3[34]: x[34] + u[34] - r[34] <= 1
 mccormick3[35]: x[35] + u[35] - r[35] <= 1
 mccormick3[36]: x[36] + u[36] - r[36] <= 1
 mccormick3[37]: x[37] + u[37] - r[37] <= 1
 mccormick3[38]: x[38] + u[38] - r[38] <= 1
 mccormick3[39]: x[39] + u[39] - r[39] <= 1
 mccormick3[40]: x[40] + u[40] - r[40] <= 1
 mccormick3[41]: x[41] + u[41] - r[41] <= 1
 mccormick3[42]: x[42] + u[42] - r[42] <= 1
 mccormick3[43]: x[43] + u[43] - r[43] <= 1
 mccormick3[44]: x[44] + u[44] - r[44] <= 1
 mccormick3[45]: x[45] + u[45] - r[45] <= 1
 mccormick3[46]: x[46] + u[46] - r[46] <= 1
 mccormick3[47]: x[47] + u[47] - r[47] <= 1
 mccormick3[48]: x[48] + u[48] - r[48] <= 1
 mccormick3[49]: x[49] + u[49] - r[49] <= 1
 mccormick3[50]: x[50] + u[50] - r[50] <= 1
 mccormick3[51]: x[51] + u[51] - r[51] <= 1
 mccormick3[52]: x[52] + u[52] - r[52] <= 1
 mccormick3[53]: x[53] + u[53] - r[53] <= 1
 mccormick3[54]: x[54] + u[54] - r[54] <= 1
 mccormick3[55]: x[55] + u[55] - r[55] <= 1
 mccormick3[56]: x[56] + u[56] - r[56] <= 1
 mccormick3[57]: x[57] + u[57] - r[57] <= 1
 mccormick3[58]: x[58] + u[58] - r[58] <= 1
 mccormick3[59]: x[59] + u[59] - r[59] <= 1
 mccormick3[60]: x[60] + u[60] - r[60] <= 1
 mccormick3[61]: x[61] + u[61] - r[61] <= 1
 mccormick3[62]: x[62] + u[62] - r[62] <= 1
 mccormick3[63]: x[63] + u[63] - r[63] <= 1
 mccormick3[64]: x[64] + u[64] - r[64] <= 1
 mccormick3[65]: x[65] + u[65] - r[65] <= 1
 mccormick3[66]: x[66] + u[66] - r[66] <= 1
 mccormick3[67]: x[67] + u[67] - r[67] <= 1
 mccormick3[68]: x[68] + u[68] - r[68] <= 1
 mccormick3[69]: x[69] + u[69] - r[69] <= 1
Bounds
Binaries
 x[0] x[1] x[2] x[3] x[4] x[5] x[6] x[7] x[8] x[9] x[10] x[11] x[12] x[13]
 x[14] x[15] x[16] x[17] x[18] x[19] x[20] x[21] x[22] x[23] x[24] x[25]
 x[26] x[27] x[28] x[29] x[30] x[31] x[32] x[33] x[34] x[35] x[36] x[37]
 x[38] x[39] x[40] x[41] x[42] x[43] x[44] x[45] x[46] x[47] x[48] x[49]
 x[50] x[51] x[52] x[53] x[54] x[55] x[56] x[57] x[58] x[59] x[60] x[61]
 x[62] x[63] x[64] x[65] x[66] x[67] x[68] x[69] u[0] u[1] u[2] u[3] u[4]
 u[5] u[6] u[7] u[8] u[9] u[10] u[11] u[12] u[13] u[14] u[15] u[16] u[17]
 u[18] u[19] u[20] u[21] u[22] u[23] u[24] u[25] u[26] u[27] u[28] u[29]
 u[30] u[31] u[32] u[33] u[34] u[35] u[36] u[37] u[38] u[39] u[40] u[41]
 u[42] u[43] u[44] u[45] u[46] u[47] u[48] u[49] u[50] u[51] u[52] u[53]
 u[54] u[55] u[56] u[57] u[58] u[59] u[60] u[61] u[62] u[63] u[64] u[65]
 u[66] u[67] u[68] u[69] r[0] r[1] r[2] r[3] r[4] r[5] r[6] r[7] r[8] r[9]
 r[10] r[11] r[12] r[13] r[14] r[15] r[16] r[17] r[18] r[19] r[20] r[21]
 r[22] r[23] r[24] r[25] r[26] r[27] r[28] r[29] r[30] r[31] r[32] r[33]
 r[34] r[35] r[36] r[37] r[38] r[39] r[40] r[41] r[42] r[43] r[44] r[45]
 r[46] r[47] r[48] r[49] r[50] r[51] r[52] r[53] r[54] r[55] r[56] r[57]
 r[58] r[59] r[60] r[61] r[62] r[63] r[64] r[65] r[66] r[67] r[68] r[69]
End
