instances/knapsack/discrete/knapsack_70_9.kp
11196
70
343

89 8.9 7
57 5.7 8
39 3.9 5
96 9.6 45
17 1.7 87
11 1.1 38
86 8.6 71
85 8.5 77
26 2.6 64
35 3.5 28
33 3.3 44
24 2.4 16
73 7.3 16
77 7.7 43
22 2.2 40
94 9.4 57
18 1.8 3
45 4.5 55
34 3.4 20
67 6.7 67
78 7.8 39
9 0.9 72
17 1.7 41
80 8.0 17
38 3.8 14
93 9.3 32
43 4.3 37
5 0.5 81
23 2.3 99
60 6.0 10
19 1.9 10
77 7.7 81
9 0.9 9
54 5.4 92
41 4.1 69
34 3.4 10
13 1.3 2
54 5.4 100
29 2.9 36
96 9.6 49
8 0.8 17
19 1.9 31
79 7.9 75
67 6.7 32
80 8.0 56
44 4.4 56
83 8.3 6
67 6.7 86
72 7.2 2
49 4.9 47
24 2.4 64
89 8.9 28
62 6.2 48
89 8.9 78
50 5.0 73
85 8.5 67
98 9.8 44
92 9.2 25
85 8.5 41
31 3.1 16
42 4.2 53
88 8.8 83
57 5.7 59
68 6.8 51
5 0.5 84
45 4.5 90
6 0.6 62
36 3.6 19
69 6.9 26
19 1.9 51

11291
379

[3.631732811409397 4.777603406038563 2.6016674588517215 3.5877474032494523 2.622684322050522 1.297777141288284 3.344284495726055 0.49909360024399035 1.9678616109508675 1.6627899538665558 5.224948613721671 1.0759959607169065 1.686058312396279 3.555419166858608 2.8300547821500457 4.602286848276392 0.6680855542021149 4.442401812358529 4.7872675885632345 2.9439945525348263 3.9131213698818796 3.363606068778902 5.032844716890698 4.555465239819555 2.3858377102146093 4.054468869597281 5.158096460703398 1.1396269242252506 3.500401190638257 2.0097787891593186 0.7533331936290485 3.7579081862259556 4.903302181294436 5.390221479639424 4.727220443757048 1.5089682012458032 2.258199719093848 1.0904182852275932 0.31391714103353163 2.8479169407977354 4.37664985976547 2.4541019933488926 1.6109723740740782 5.035481949595031 3.0337806365768465 1.6453581012203098 3.5803185907132318 1.2421255017373303 1.8980979600924026 4.831082783959318 4.7220422985393675 5.045809420599978 2.065000355356556 5.358351746634806 3.94337043787763 2.3991332228660456 3.4073230529204825 0.03862127094520168 4.193259907128967 1.889889495786993 3.993717597369745 1.826743539859208 3.9206763851784823 2.581560386953323 4.2194164504676515 4.340433693726057 3.993079319808102 3.276773215053554 4.656902697509771 1.481082690062759]

[46 71 57 42 91 20 36 14 52 77 82 98 71 75 31 31 76 71 76 81 40 86 99 89 43 59 89 46 76 50 20 54 22 32 31 100 63 11 47 49 22 48 61 52 98 97 8 52 74 39 65 71 20 55 99 86 96 45 35 89 43 1 90 1 70 75 19 25 59 88]
